20
0 1 0.56 0.0
0 2 0.85 0.18
0 3 0.89 0.2
0 4 0.6 0.22
0 5 0.34 0.12
0 6 0.6 0.15
0 7 0.48 0.2
0 8 0.86 0.2
0 9 0.88 0.3
0 10 0.52 0.08
0 11 0.5 0.04
0 12 0.71 0.18
0 13 0.66 0.16
0 14 0.62 0.24
0 15 0.68 0.2
0 16 0.84 0.19
0 17 0.7 0.18
0 18 0.62 0.16
0 19 0.55 0.14
1 2 0.34 0.18
1 3 0.39 0.2
1 4 0.68 0.22
1 5 0.67 0.12
1 6 0.78 0.15
1 7 0.74 0.2
1 8 0.86 0.2
1 9 0.58 0.3
1 10 0.63 0.08
1 11 0.5 0.04
1 12 0.64 0.18
1 13 0.56 0.16
1 14 0.36 0.24
1 15 0.46 0.2
1 16 0.57 0.19
1 17 0.74 0.18
1 18 0.58 0.16
1 19 0.6 0.14
2 3 0.28 0.23
2 4 0.56 0.12
2 5 0.74 0.26
2 6 0.92 0.29
2 7 0.75 0.3
2 8 0.76 0.24
2 9 0.84 0.12
2 10 0.79 0.24
2 11 0.67 0.2
2 12 0.36 0.18
2 13 0.38 0.18
2 14 0.54 0.08
2 15 0.61 0.02
2 16 0.49 0.27
2 17 0.63 0.29
2 18 0.7 0.24
2 19 0.8 0.2
3 4 0.38 0.16
3 5 0.58 0.19
3 6 0.64 0.16
3 7 0.77 0.27
3 8 0.66 0.32
3 9 0.66 0.35
3 10 0.62 0.2
3 11 0.39 0.16
3 12 0.64 0.28
3 13 0.66 0.29
3 14 0.48 0.26
3 15 0.48 0.25
3 16 0.37 0.2
3 17 0.35 0.06
3 18 0.61 0.35
3 19 0.91 0.24
4 5 0.36 0.27
4 6 0.54 0.3
4 7 0.53 0.19
4 8 0.28 0.22
4 9 0.67 0.23
4 10 0.43 0.2
4 11 0.77 0.24
4 12 0.66 0.12
4 13 0.64 0.3
4 14 0.64 0.18
4 15 0.56 0.1
4 16 0.75 0.26
4 17 0.69 0.22
4 18 0.68 0.27
4 19 0.76 0.08
5 6 0.73 0.03
5 7 0.76 0.08
5 8 0.64 0.32
5 9 0.54 0.34
5 10 0.51 0.2
5 11 0.69 0.16
5 12 0.6 0.22
5 13 0.5 0.28
5 14 0.52 0.28
5 15 0.34 0.24
5 16 0.57 0.07
5 17 0.62 0.25
5 18 0.78 0.16
5 19 0.52 0.19
6 7 0.62 0.11
6 8 0.67 0.34
6 9 0.58 0.32
6 10 0.69 0.23
6 11 0.62 0.19
6 12 0.68 0.25
6 13 0.82 0.31
6 14 0.54 0.31
6 15 0.62 0.27
6 16 0.78 0.04
6 17 0.6 0.22
6 18 0.63 0.19
6 19 0.65 0.22
7 8 0.56 0.24
7 9 0.56 0.26
7 10 0.59 0.28
7 11 0.68 0.24
7 12 0.39 0.21
7 13 0.52 0.36
7 14 0.43 0.24
7 15 0.48 0.28
7 16 0.6 0.1
7 17 0.68 0.33
7 18 0.16 0.08
7 19 0.63 0.11
8 9 0.55 0.33
8 10 0.43 0.12
8 11 0.55 0.16
8 12 0.82 0.27
8 13 0.68 0.36
8 14 0.67 0.16
8 15 0.66 0.26
8 16 0.58 0.31
8 17 0.41 0.26
8 18 0.4 0.26
8 19 0.63 0.17
9 10 0.61 0.25
9 11 0.84 0.26
9 12 0.57 0.26
9 13 0.6 0.3
9 14 0.7 0.2
9 15 0.85 0.14
9 16 0.82 0.36
9 17 0.82 0.4
9 18 0.52 0.34
9 19 0.4 0.16
10 11 0.88 0.04
10 12 0.66 0.26
10 13 0.6 0.24
10 14 0.3 0.26
10 15 0.65 0.22
10 16 0.47 0.19
10 17 0.8 0.18
10 18 0.57 0.24
10 19 0.62 0.22
11 12 0.54 0.22
11 13 0.78 0.2
11 14 0.79 0.28
11 15 0.76 0.18
11 16 0.56 0.15
11 17 0.3 0.14
11 18 0.84 0.2
11 19 0.86 0.18
12 13 0.54 0.33
12 14 0.56 0.26
12 15 0.68 0.2
12 16 0.62 0.29
12 17 0.78 0.34
12 18 0.55 0.29
12 19 0.6 0.1
13 14 0.63 0.26
13 15 0.64 0.2
13 16 0.82 0.32
13 17 0.48 0.23
13 18 0.36 0.32
13 19 0.83 0.3
14 15 0.71 0.1
14 16 0.74 0.32
14 17 0.69 0.32
14 18 0.27 0.16
14 19 0.44 0.22
15 16 0.76 0.29
15 17 0.66 0.27
15 18 0.44 0.26
15 19 0.86 0.18
16 17 0.71 0.26
16 18 0.66 0.18
16 19 0.78 0.21
17 18 0.54 0.34
17 19 0.56 0.28
18 19 0.47 0.19
